words_hard_train/4769.qaiger
aag 147 23 0 1 124
2
4
12
14
22
26
28
44
46
58
60
72
74
86
88
106
108
112
116
120
124
128
134
294
6 2 4
8 3 5
10 7 9
16 13 15
18 12 14
20 17 19
24 20 22
30 27 29
32 26 28
34 31 33
36 24 34
38 37 33
40 34 18
42 38 41
48 45 47
50 44 46
52 49 51
54 43 52
56 55 51
62 59 61
64 58 60
66 63 65
68 57 66
70 69 65
76 73 75
78 72 74
80 77 79
82 71 80
84 83 79
90 87 89
92 86 88
94 91 93
96 85 94
98 97 93
100 10 98
102 11 99
104 101 103
110 107 109
114 110 113
118 114 117
122 119 120
126 123 125
130 126 129
132 130 120
136 132 135
138 105 137
140 124 120
142 141 123
144 143 128
146 142 129
148 145 147
150 42 53
152 151 55
154 153 36
156 56 67
158 157 69
160 154 159
162 70 81
164 163 83
166 161 164
168 160 165
170 167 169
172 149 171
174 122 124
176 175 127
178 152 37
180 179 155
182 106 120
184 183 109
186 182 108
188 185 187
190 106 23
192 191 20
194 188 193
196 190 21
198 195 197
200 111 120
202 201 113
204 200 112
206 203 205
208 35 19
210 209 41
212 206 211
214 198 213
216 207 210
218 215 217
220 115 120
222 221 116
224 220 117
226 223 225
228 218 227
230 181 229
232 219 226
234 231 233
236 155 158
238 237 161
240 234 238
242 177 241
244 235 239
246 243 245
248 173 246
250 148 170
252 249 251
254 131 120
256 255 134
258 254 135
260 257 259
262 84 95
264 263 97
266 169 264
268 168 265
270 267 269
272 260 271
274 253 273
276 261 270
278 275 277
280 279 268
282 138 281
284 278 269
286 285 139
288 283 287
290 104 136
292 290 281
294 289 293
i0 1 x1[7]
i1 2 y2[7]
i2 1 x1[1]
i3 2 y2[1]
i4 2 y2[0]
i5 1 x1[2]
i6 2 y2[2]
i7 1 x1[3]
i8 2 y2[3]
i9 1 x1[4]
i10 2 y2[4]
i11 1 x1[5]
i12 2 y2[5]
i13 1 x1[6]
i14 2 y2[6]
i15 2 y1[0]
i16 2 y1[1]
i17 2 y1[2]
i18 2 y1[3]
i19 2 y1[7]
i20 2 y1[4]
i21 2 y1[5]
i22 2 y1[6]
o0 bv[0]
c
simplified
  <=
    add
      or
        1 x1
        1
      2 y2
    abs
      2 y1
