words_hard_train/4769.qaiger.qdimacs
p cnf 147 373
a 1 36 6 43 13 22 29 0
e 2 3 4 5 7 8 9 10 11 12 14 15 16 17 18 19 20 21 23 24 25 26 27 28 30 31 32 33 34 35 37 38 39 40 41 42 44 45 46 47 48 49 50 51 52 53 54 55 56 57 58 59 60 61 62 63 64 65 66 67 68 69 70 71 72 73 74 75 76 77 78 79 80 81 82 83 84 85 86 87 88 89 90 91 92 93 94 95 96 97 98 99 100 101 102 103 104 105 106 107 108 109 110 111 112 113 114 115 116 117 118 119 120 121 122 123 124 125 126 127 128 129 130 131 132 133 134 135 136 137 138 139 140 141 142 143 144 145 146 147 0
-1 -2 3 0
1 -3 0
2 -3 0
1 2 4 0
-1 -4 0
-2 -4 0
3 4 5 0
-3 -5 0
-4 -5 0
6 7 8 0
-6 -8 0
-7 -8 0
-6 -7 9 0
6 -9 0
7 -9 0
8 9 10 0
-8 -10 0
-9 -10 0
-10 -11 12 0
10 -12 0
11 -12 0
13 14 15 0
-13 -15 0
-14 -15 0
-13 -14 16 0
13 -16 0
14 -16 0
15 16 17 0
-15 -17 0
-16 -17 0
-12 -17 18 0
12 -18 0
17 -18 0
18 16 19 0
-18 -19 0
-16 -19 0
-17 -9 20 0
17 -20 0
9 -20 0
-19 20 21 0
19 -21 0
-20 -21 0
22 23 24 0
-22 -24 0
-23 -24 0
-22 -23 25 0
22 -25 0
23 -25 0
24 25 26 0
-24 -26 0
-25 -26 0
21 -26 27 0
-21 -27 0
26 -27 0
27 25 28 0
-27 -28 0
-25 -28 0
29 30 31 0
-29 -31 0
-30 -31 0
-29 -30 32 0
29 -32 0
30 -32 0
31 32 33 0
-31 -33 0
-32 -33 0
28 -33 34 0
-28 -34 0
33 -34 0
34 32 35 0
-34 -35 0
-32 -35 0
36 37 38 0
-36 -38 0
-37 -38 0
-36 -37 39 0
36 -39 0
37 -39 0
38 39 40 0
-38 -40 0
-39 -40 0
35 -40 41 0
-35 -41 0
40 -41 0
41 39 42 0
-41 -42 0
-39 -42 0
43 44 45 0
-43 -45 0
-44 -45 0
-43 -44 46 0
43 -46 0
44 -46 0
45 46 47 0
-45 -47 0
-46 -47 0
42 -47 48 0
-42 -48 0
47 -48 0
48 46 49 0
-48 -49 0
-46 -49 0
-5 -49 50 0
5 -50 0
49 -50 0
5 49 51 0
-5 -51 0
-49 -51 0
50 51 52 0
-50 -52 0
-51 -52 0
53 54 55 0
-53 -55 0
-54 -55 0
-55 56 57 0
55 -57 0
-56 -57 0
-57 58 59 0
57 -59 0
-58 -59 0
59 -60 61 0
-59 -61 0
60 -61 0
61 62 63 0
-61 -63 0
-62 -63 0
-63 64 65 0
63 -65 0
-64 -65 0
-65 -60 66 0
65 -66 0
60 -66 0
-66 67 68 0
66 -68 0
-67 -68 0
52 68 69 0
-52 -69 0
-68 -69 0
-62 -60 70 0
62 -70 0
60 -70 0
70 61 71 0
-70 -71 0
-61 -71 0
71 -64 72 0
-71 -72 0
64 -72 0
-71 64 73 0
71 -73 0
-64 -73 0
72 73 74 0
-72 -74 0
-73 -74 0
-21 26 75 0
21 -75 0
-26 -75 0
75 27 76 0
-75 -76 0
-27 -76 0
76 -18 77 0
-76 -77 0
18 -77 0
-28 33 78 0
28 -78 0
-33 -78 0
78 34 79 0
-78 -79 0
-34 -79 0
-77 79 80 0
77 -80 0
-79 -80 0
-35 40 81 0
35 -81 0
-40 -81 0
81 41 82 0
-81 -82 0
-41 -82 0
80 -82 83 0
-80 -83 0
82 -83 0
-80 82 84 0
80 -84 0
-82 -84 0
83 84 85 0
-83 -85 0
-84 -85 0
74 85 86 0
-74 -86 0
-85 -86 0
-61 -62 87 0
61 -87 0
62 -87 0
87 63 88 0
-87 -88 0
-63 -88 0
-76 18 89 0
76 -89 0
-18 -89 0
89 77 90 0
-89 -90 0
-77 -90 0
-53 -60 91 0
53 -91 0
60 -91 0
91 54 92 0
-91 -92 0
-54 -92 0
-91 -54 93 0
91 -93 0
54 -93 0
92 93 94 0
-92 -94 0
-93 -94 0
-53 11 95 0
53 -95 0
-11 -95 0
95 -10 96 0
-95 -96 0
10 -96 0
-94 96 97 0
94 -97 0
-96 -97 0
-95 10 98 0
95 -98 0
-10 -98 0
97 98 99 0
-97 -99 0
-98 -99 0
55 -60 100 0
-55 -100 0
60 -100 0
100 56 101 0
-100 -101 0
-56 -101 0
-100 -56 102 0
100 -102 0
56 -102 0
101 102 103 0
-101 -103 0
-102 -103 0
17 9 104 0
-17 -104 0
-9 -104 0
104 20 105 0
-104 -105 0
-20 -105 0
-103 105 106 0
103 -106 0
-105 -106 0
-99 106 107 0
99 -107 0
-106 -107 0
103 -105 108 0
-103 -108 0
105 -108 0
107 108 109 0
-107 -109 0
-108 -109 0
57 -60 110 0
-57 -110 0
60 -110 0
110 -58 111 0
-110 -111 0
58 -111 0
-110 58 112 0
110 -112 0
-58 -112 0
111 112 113 0
-111 -113 0
-112 -113 0
-109 113 114 0
109 -114 0
-113 -114 0
90 114 115 0
-90 -115 0
-114 -115 0
109 -113 116 0
-109 -116 0
113 -116 0
115 116 117 0
-115 -117 0
-116 -117 0
77 -79 118 0
-77 -118 0
79 -118 0
118 80 119 0
-118 -119 0
-80 -119 0
-117 -119 120 0
117 -120 0
119 -120 0
88 120 121 0
-88 -121 0
-120 -121 0
117 119 122 0
-117 -122 0
-119 -122 0
121 122 123 0
-121 -123 0
-122 -123 0
86 -123 124 0
-86 -124 0
123 -124 0
-74 -85 125 0
74 -125 0
85 -125 0
124 125 126 0
-124 -126 0
-125 -126 0
65 -60 127 0
-65 -127 0
60 -127 0
127 -67 128 0
-127 -128 0
67 -128 0
-127 67 129 0
127 -129 0
-67 -129 0
128 129 130 0
-128 -130 0
-129 -130 0
-42 47 131 0
42 -131 0
-47 -131 0
131 48 132 0
-131 -132 0
-48 -132 0
84 -132 133 0
-84 -133 0
132 -133 0
-84 132 134 0
84 -134 0
-132 -134 0
133 134 135 0
-133 -135 0
-134 -135 0
-130 135 136 0
130 -136 0
-135 -136 0
126 136 137 0
-126 -137 0
-136 -137 0
130 -135 138 0
-130 -138 0
135 -138 0
137 138 139 0
-137 -139 0
-138 -139 0
139 -134 140 0
-139 -140 0
134 -140 0
-69 140 141 0
69 -141 0
-140 -141 0
-139 134 142 0
139 -142 0
-134 -142 0
142 69 143 0
-142 -143 0
-69 -143 0
141 143 144 0
-141 -144 0
-143 -144 0
-52 -68 145 0
52 -145 0
68 -145 0
-145 140 146 0
145 -146 0
-140 -146 0
144 146 147 0
-144 -147 0
-146 -147 0
147 0
